#######################################
### Exact MIP solver for the HHCRSP ###
#######################################
-- Instance file: new-instances/HHCRSP_400_80_33_0.4_R_C.txt
-- Max threads: 4
-- Time limit: 999999 seconds
-- Use initial solution: No
Trivial flow violations prevented generating 2859200 variables.
Version identifier: 20.1.0.0 | 2020-11-10 | 9bedb6d68
CPXPARAM_Threads                                 4
CPXPARAM_Emphasis_Memory                         1
CPXPARAM_TimeLimit                               999999
Tried aggregator 1 time.
Presolve has eliminated 85890 rows and 19024 columns...
LP Presolve eliminated 85890 rows and 19024 columns.
Reduced LP has 3104300 rows, 2941968 columns, and 89114441 nonzeros.
Presolve time = 91.33 sec. (18849.55 ticks)
Compression time = 22.81 sec. (5.87 ticks)
Compression reduced 1284.60 MB A matrix to 387.44 MB
Symmetry aggregator did 5315852 additional substitutions.
Elapsed time = 115.54 sec. (19656.42 ticks, 1 iterations)

Iteration log . . .
Iteration:     1   Dual objective     =             0.000000
Iteration:  1830   Dual objective     =           451.833333

Dual crossover.
  Dual:  Fixing 3604 variables.
     3603 DMoves:  Infeasibility  3.64797081e-12  Objective  4.54666667e+02
        0 DMoves:  Infeasibility  1.88365989e-12  Objective  4.54666667e+02
  Dual:  Pushed 110, exchanged 3494.
  Primal:  Fixing 2188 variables.
     2187 PMoves:  Infeasibility  0.00000000e+00  Objective  4.54666667e+02
        0 PMoves:  Infeasibility  2.77555756e-16  Objective  4.54666667e+02
  Primal:  Pushed 1990, exchanged 198.

Solution status from MIP model:
-- Processing time: 158.986 sec.
-- Memory used: 1996.81 MB
-- Best bound: inf
-- Obj value: 454.667
-- Gap: inf%
-- Total distance: 1364
-- Total tardiness: 0
-- Largest tardiness: 0
